(set-logic CHC_LIA)

(synth-fun state ((x_0 Bool) (x_1 Bool) (x_2 Bool) (x_3 Bool) (x_4 Bool) (x_5 Int) (x_6 Int) (x_7 Int) (x_8 Int)) Bool)

(constraint (forall ((.s.1 Bool) (.s.0 Bool) (.s.2 Bool) (.s.3 Bool) (.s.4 Bool) (main.n Int) (main.k Int) (main.j Int) (main.i Int)) (=> (and (not .s.1) .s.0 (not .s.2) (not .s.3) (not .s.4)) (state .s.1 .s.0 .s.2 .s.3 .s.4 main.n main.k main.j main.i))))
(constraint (forall ((.s.1 Bool) (.s.0 Bool) (.s.2 Bool) (.s.3 Bool) (.s.4 Bool) (main.n Int) (main.k Int) (main.j Int) (main.i Int) (main.n.next Int) (main.k.next Int) (main.j.next Int) (main.i.next Int) (.s.4.next Bool) (.s.3.next Bool) (.s.2.next Bool) (.s.1.next Bool) (.s.0.next Bool) (.inputVar.0 Int)) (let ((a!1 (and .s.3 (and (not .s.2) (and .s.1 (not .s.0))))) (a!2 (and (not .s.3.next) (and (not .s.2.next) (and (not .s.1.next) (not .s.0.next))))) (a!4 (and (and (and (not .s.1) .s.0) (not .s.2)) .s.3)) (a!5 (and (not .s.3.next) (and .s.2.next (and (not .s.1.next) (not .s.0.next))))) (a!7 (and .s.3 (and (not .s.2) (and (not .s.1) (not .s.0))))) (a!8 (= (+ main.i (* (- 1) main.i.next)) (- 1))) (a!9 (and .s.3.next (and (not .s.2.next) (and (not .s.1.next) .s.0.next)))) (a!10 (and .s.4 (and (not .s.3) (and .s.2 (and .s.1 .s.0))))) (a!11 (and (= main.n main.n.next) (= main.k main.k.next) (= main.j main.j.next) (= main.i main.i.next) .s.4.next (and (not .s.3.next) (and .s.2.next (and .s.1.next .s.0.next))))) (a!12 (and (not .s.3) (and .s.2 (and .s.1 (not .s.0))))) (a!13 (and (not .s.3.next) (and .s.2.next (and .s.1.next (not .s.0.next))))) (a!15 (and (not .s.3) (and (and (not .s.1) .s.0) .s.2))) (a!16 (and (= main.n main.n.next) (= main.k main.k.next) (= main.j main.j.next) (= main.i main.i.next) (not .s.4.next) .s.3.next (and .s.2.next (and .s.1.next .s.0.next)))) (a!17 (and (not .s.3) (and .s.2 (and (not .s.1) (not .s.0))))) (a!18 (and (not .s.3.next) (and .s.2.next (and (not .s.1.next) .s.0.next)))) (a!19 (and .s.4 (and (not .s.3) (and (not .s.2) (and .s.1 .s.0))))) (a!22 (and (not .s.3) (and (not .s.2) (and .s.1 (not .s.0))))) (a!23 (and (= main.n main.n.next) (= main.k main.k.next) (= main.j main.j.next) (= main.i main.i.next) .s.4.next (and (not .s.3.next) (and (not .s.2.next) (and .s.1.next .s.0.next))))) (a!24 (and (and (and (not .s.1) .s.0) (not .s.2)) (not .s.3))) (a!25 (and (not .s.3.next) (and (not .s.2.next) (and .s.1.next (not .s.0.next))))) (a!28 (and (not .s.3) (and (not .s.2) (and (not .s.1) (not .s.0))))) (a!30 (not (and (not .s.4) .s.3 (and .s.2 (and .s.1 .s.0))))) (a!31 (= (+ main.j (* (- 1) main.j.next)) (- 1))) (a!32 (and (not .s.4) .s.3 (and .s.2 (and .s.1 (not .s.0))))) (a!33 (and (= main.n main.n.next) (= main.k main.k.next) (= main.j main.j.next) (= main.i main.i.next) (not .s.4.next) .s.3.next (and .s.2.next (and .s.1.next (not .s.0.next))))) (a!34 (and (not .s.4) .s.3 (and (and (not .s.1) .s.0) .s.2))) (a!36 (and (not .s.4) .s.3 (and .s.2 (and (not .s.1) (not .s.0))))) (a!37 (= (+ main.k (* (- 1) main.k.next)) (- 1))) (a!39 (not (and (not .s.4) .s.3 (and (not .s.2) (and .s.1 .s.0))))) (a!40 (and (= main.n main.n.next) (= main.k main.k.next) (= main.j main.j.next) (= main.i main.i.next) (not .s.4.next) .s.3.next (and .s.2.next (and (not .s.1.next) (not .s.0.next))))) (a!41 (<= 0 (+ main.k (* (- 2) main.i)))) (a!47 (and .s.3.next (and (not .s.2.next) (and .s.1.next (not .s.0.next))))) (a!49 (and (not .s.4) (and (not .s.3) (and .s.2 (and .s.1 .s.0))))) (a!50 (and .s.3.next (and (not .s.2.next) (and (not .s.1.next) (not .s.0.next))))) (a!53 (and (= main.n main.n.next) (= main.k main.k.next) (= main.j main.j.next) (= main.i main.i.next) .s.4.next (not .s.3.next) (and (not .s.2.next) (and (not .s.1.next) .s.0.next)))) (a!55 (and (= main.n main.n.next) (= main.k main.k.next) (= main.j main.j.next) (= main.i main.i.next) (not .s.4.next) (and (not .s.3.next) (and .s.2.next (and .s.1.next .s.0.next))))) (a!57 (= (+ main.j.next (* (- 2) main.i)) 0)) (a!61 (and (not .s.4) (and (not .s.3) (and (not .s.2) (and .s.1 .s.0))))) (a!66 (and (= main.n main.n.next) (= main.k main.k.next) (= main.j main.j.next) (= main.i main.i.next) (not .s.4.next) (and (not .s.3.next) (and (not .s.2.next) (and .s.1.next .s.0.next)))))) (let ((a!3 (and (= main.n main.n.next) (= main.k main.k.next) (= main.j main.j.next) (= main.i main.i.next) (not .s.4.next) a!2)) (a!6 (or (not (and .s.4 a!4)) (and (= main.n main.n.next) (= main.k main.k.next) (= main.j main.j.next) (= main.i main.i.next) (and (not .s.4.next) a!5)))) (a!14 (and (= main.n main.n.next) (= main.k main.k.next) (= main.j main.j.next) (= main.i main.i.next) .s.4.next a!13)) (a!20 (not (and a!19 (not (<= main.k main.n))))) (a!21 (or (not (and a!19 (<= main.k main.n))) (and (= main.n main.n.next) (= main.k main.k.next) (= main.j main.j.next) (= main.i main.i.next) .s.4.next a!5))) (a!26 (or (not (and (and a!24 .s.4) (<= main.n main.k))) (and (= main.n main.n.next) (= main.k main.k.next) (= main.j main.j.next) (= main.i main.i.next) .s.4.next a!25))) (a!27 (not (and (and a!24 .s.4) (not (<= main.n main.k))))) (a!29 (or (not (and .s.4 a!28)) (and (= main.n main.n.next) (= main.k main.k.next) (= main.j main.j.next) (= main.i main.i.next) (and (not .s.4.next) a!13)))) (a!35 (or (not a!34) (and (= main.n main.n.next) (= main.k main.k.next) (= main.j main.j.next) (= main.i main.i.next) (and (not .s.4.next) a!9)))) (a!38 (and (= main.n main.n.next) (= main.j main.j.next) (= main.i main.i.next) a!37 (not .s.4.next) .s.3.next (and .s.2.next (and (not .s.1.next) .s.0.next)))) (a!42 (not (and (and (not .s.4) a!1) a!41))) (a!44 (not (and (and (not .s.4) a!1) (not a!41)))) (a!45 (not (and (<= main.n main.k) (and (not .s.4) a!4)))) (a!46 (not (and (not (<= main.n main.k)) (and (not .s.4) a!4)))) (a!48 (or (not (and (not .s.4) a!7)) (and (= main.n main.n.next) (= main.j main.j.next) (= main.i main.i.next) (and (not .s.4.next) a!9) (= main.k.next main.j)))) (a!51 (or (not (and a!49 (= .inputVar.0 0))) (and (= main.n main.n.next) (= main.k main.k.next) (= main.j main.j.next) (= main.i main.i.next) (not .s.4.next) a!50))) (a!52 (not (and a!49 (not (= .inputVar.0 0))))) (a!54 (not (and (and (not .s.4) a!12) (not (<= main.n main.j))))) (a!56 (not (and (and (not .s.4) a!12) (<= main.n main.j)))) (a!58 (or (not (and (not .s.4) a!15)) (and (= main.n main.n.next) (= main.k main.k.next) (= main.i main.i.next) (and (not .s.4.next) a!13) a!57))) (a!59 (not (and (and (not .s.4) a!17) (not (<= main.n main.i))))) (a!60 (not (and (and (not .s.4) a!17) (<= main.n main.i)))) (a!62 (or (not a!61) (and (= main.n main.n.next) (= main.k main.k.next) (= main.j main.j.next) (and (not .s.4.next) a!5) (= main.i.next 0)))) (a!64 (not (and (and a!24 (not .s.4)) (not (= main.n main.k))))) (a!65 (not (and (and a!24 (not .s.4)) (= main.n main.k))))) (let ((a!43 (or a!42 (and (= main.n main.n.next) (= main.k main.k.next) (= main.j main.j.next) (= main.i main.i.next) (not .s.4.next) .s.3.next (and (not .s.2.next) (and .s.1.next .s.0.next))))) (a!63 (or a!3 (not (and (not .s.4) a!22)))) (a!67 (or a!3 (not (and (not .s.4) a!28))))) (let ((a!68 (and (state .s.1 .s.0 .s.2 .s.3 .s.4 main.n main.k main.j main.i) (or (not (and .s.4 a!1)) a!3) a!6 (or (not (and .s.4 a!7)) (and (= main.n main.n.next) (= main.k main.k.next) (= main.j main.j.next) a!8 .s.4.next a!9)) (or (not a!10) a!11) (or (not (and .s.4 a!12)) a!14) (or (not (and .s.4 a!15)) a!16) (or (not (and .s.4 a!17)) (and (= main.n main.n.next) (= main.k main.k.next) (= main.j main.j.next) (= main.i main.i.next) .s.4.next a!18)) (or a!14 a!20) a!21 (or (not (and .s.4 a!22)) a!23) a!26 (or a!11 a!27) a!29 (or a!30 (and (= main.n main.n.next) (= main.k main.k.next) (= main.i main.i.next) a!31 .s.4.next a!2)) (or (not a!32) a!33) a!35 (or (not a!36) a!38) (or a!39 a!40) a!43 (or a!33 a!44) (or a!16 a!45) (or a!46 (and (= main.n main.n.next) (= main.k main.k.next) (= main.j main.j.next) (= main.i main.i.next) (not .s.4.next) a!47)) a!48 a!51 (or a!52 a!53) (or a!54 a!55) (or a!56 (and (= main.n main.n.next) (= main.k main.k.next) (= main.j main.j.next) (= main.i main.i.next) .s.4.next a!50)) a!58 (or a!59 (and (= main.n main.n.next) (= main.k main.k.next) (= main.j main.j.next) (= main.i main.i.next) (not .s.4.next) a!18)) (or a!60 (and (= main.n main.n.next) (= main.k main.k.next) (= main.j main.j.next) (= main.i main.i.next) .s.4.next a!47)) a!62 a!63 (or a!64 (and (= main.n main.n.next) (= main.k main.k.next) (= main.j main.j.next) (= main.i main.i.next) (not .s.4.next) a!25)) (or a!65 a!66) a!67))) (=> a!68 (state .s.1.next .s.0.next .s.2.next .s.3.next .s.4.next main.n.next main.k.next main.j.next main.i.next))))))))
(constraint (forall ((.s.1 Bool) (.s.0 Bool) (.s.2 Bool) (.s.3 Bool) (.s.4 Bool) (main.n Int) (main.k Int) (main.j Int) (main.i Int)) (let ((a!1 (not (and .s.4 (not .s.3) (and .s.2 .s.1 (not .s.0))))) (a!2 (not (and (not .s.4) .s.3 (and .s.2 .s.1 (not .s.0)))))) (let ((a!3 (and (not (and .s.4 (not .s.3) .s.2 .s.1 .s.0)) a!1 a!2))) (=> (and (state .s.1 .s.0 .s.2 .s.3 .s.4 main.n main.k main.j main.i) (not a!3)) false)))))

(check-synth)

